\ENCODING=ISO-8859-1
\Problem name: FEASIBLELP

Maximize
 obj: x201
Subject To
 UTILITY_TF_1#0:   3.40003967285156 n_k1_o1 + 2.40003967285156 n_k2_o1
                   + 3.40003967285156 n_k3_o1 - 0.599960327148438 n_k4_o1
                   + 3.40003967285156 n_k5_o1 - 1.59996032714844 n_k6_o1
                   - 1.59996032714844 n_k7_o1 + 3.40003967285156 n_k8_o1
                   + 3.40003967285156 n_k9_o1 - 0.599960327148438 n_k10_o1
                   - 1.59996032714844 n_k11_o1 - 0.599960327148438 n_k12_o1
                   - 1.59996032714844 n_k13_o1 - 1.59996032714844 n_k14_o1
                   - 0.599960327148438 n_k15_o1 - 0.599960327148438 n_k16_o1
                   - 1.59996032714844 n_k17_o1 - 1.59996032714844 n_k18_o1
                   - 2.59996032714844 n_k19_o1 - 2.59996032714844 n_k20_o1 <= 0
 UTILITY_TF_2#1:   3.40003967285156 n_k1_o2 + 2.40003967285156 n_k2_o2
                   + 3.40003967285156 n_k3_o2 - 0.599960327148438 n_k4_o2
                   + 3.40003967285156 n_k5_o2 - 1.59996032714844 n_k6_o2
                   - 1.59996032714844 n_k7_o2 + 3.40003967285156 n_k8_o2
                   + 3.40003967285156 n_k9_o2 - 0.599960327148438 n_k10_o2
                   - 1.59996032714844 n_k11_o2 - 0.599960327148438 n_k12_o2
                   - 1.59996032714844 n_k13_o2 - 1.59996032714844 n_k14_o2
                   - 0.599960327148438 n_k15_o2 - 0.599960327148438 n_k16_o2
                   - 1.59996032714844 n_k17_o2 - 1.59996032714844 n_k18_o2
                   - 2.59996032714844 n_k19_o2 - 2.59996032714844 n_k20_o2 <= 0
 UTILITY_TF_3#2:   3.40003967285156 n_k1_o3 + 2.40003967285156 n_k2_o3
                   + 3.40003967285156 n_k3_o3 - 0.599960327148438 n_k4_o3
                   + 3.40003967285156 n_k5_o3 - 1.59996032714844 n_k6_o3
                   - 1.59996032714844 n_k7_o3 + 3.40003967285156 n_k8_o3
                   + 3.40003967285156 n_k9_o3 - 0.599960327148438 n_k10_o3
                   - 1.59996032714844 n_k11_o3 - 0.599960327148438 n_k12_o3
                   - 1.59996032714844 n_k13_o3 - 1.59996032714844 n_k14_o3
                   - 0.599960327148438 n_k15_o3 - 0.599960327148438 n_k16_o3
                   - 1.59996032714844 n_k17_o3 - 1.59996032714844 n_k18_o3
                   - 2.59996032714844 n_k19_o3 - 2.59996032714844 n_k20_o3 <= 0
 UTILITY_TF_4#3:   3.40003967285156 n_k1_o4 + 2.40003967285156 n_k2_o4
                   + 3.40003967285156 n_k3_o4 - 0.599960327148438 n_k4_o4
                   + 3.40003967285156 n_k5_o4 - 1.59996032714844 n_k6_o4
                   - 1.59996032714844 n_k7_o4 + 3.40003967285156 n_k8_o4
                   + 3.40003967285156 n_k9_o4 - 0.599960327148438 n_k10_o4
                   - 1.59996032714844 n_k11_o4 - 0.599960327148438 n_k12_o4
                   - 1.59996032714844 n_k13_o4 - 1.59996032714844 n_k14_o4
                   - 0.599960327148438 n_k15_o4 - 0.599960327148438 n_k16_o4
                   - 1.59996032714844 n_k17_o4 - 1.59996032714844 n_k18_o4
                   - 2.59996032714844 n_k19_o4 - 2.59996032714844 n_k20_o4 <= 0
 UTILITY_TF_5#4:   3.40003967285156 n_k1_o5 + 2.40003967285156 n_k2_o5
                   + 3.40003967285156 n_k3_o5 - 0.599960327148438 n_k4_o5
                   + 3.40003967285156 n_k5_o5 - 1.59996032714844 n_k6_o5
                   - 1.59996032714844 n_k7_o5 + 3.40003967285156 n_k8_o5
                   + 3.40003967285156 n_k9_o5 - 0.599960327148438 n_k10_o5
                   - 1.59996032714844 n_k11_o5 - 0.599960327148438 n_k12_o5
                   - 1.59996032714844 n_k13_o5 - 1.59996032714844 n_k14_o5
                   - 0.599960327148438 n_k15_o5 - 0.599960327148438 n_k16_o5
                   - 1.59996032714844 n_k17_o5 - 1.59996032714844 n_k18_o5
                   - 2.59996032714844 n_k19_o5 - 2.59996032714844 n_k20_o5 <= 0
 UTILITY_TF_6#5:   3.40003967285156 n_k1_o6 + 2.40003967285156 n_k2_o6
                   + 3.40003967285156 n_k3_o6 - 0.599960327148438 n_k4_o6
                   + 3.40003967285156 n_k5_o6 - 1.59996032714844 n_k6_o6
                   - 1.59996032714844 n_k7_o6 + 3.40003967285156 n_k8_o6
                   + 3.40003967285156 n_k9_o6 - 0.599960327148438 n_k10_o6
                   - 1.59996032714844 n_k11_o6 - 0.599960327148438 n_k12_o6
                   - 1.59996032714844 n_k13_o6 - 1.59996032714844 n_k14_o6
                   - 0.599960327148438 n_k15_o6 - 0.599960327148438 n_k16_o6
                   - 1.59996032714844 n_k17_o6 - 1.59996032714844 n_k18_o6
                   - 2.59996032714844 n_k19_o6 - 2.59996032714844 n_k20_o6 <= 0
 UTILITY_TF_7#6:   3.40003967285156 n_k1_o7 + 2.40003967285156 n_k2_o7
                   + 3.40003967285156 n_k3_o7 - 0.599960327148438 n_k4_o7
                   + 3.40003967285156 n_k5_o7 - 1.59996032714844 n_k6_o7
                   - 1.59996032714844 n_k7_o7 + 3.40003967285156 n_k8_o7
                   + 3.40003967285156 n_k9_o7 - 0.599960327148438 n_k10_o7
                   - 1.59996032714844 n_k11_o7 - 0.599960327148438 n_k12_o7
                   - 1.59996032714844 n_k13_o7 - 1.59996032714844 n_k14_o7
                   - 0.599960327148438 n_k15_o7 - 0.599960327148438 n_k16_o7
                   - 1.59996032714844 n_k17_o7 - 1.59996032714844 n_k18_o7
                   - 2.59996032714844 n_k19_o7 - 2.59996032714844 n_k20_o7 <= 0
 UTILITY_TF_8#7:   3.40003967285156 n_k1_o8 + 2.40003967285156 n_k2_o8
                   + 3.40003967285156 n_k3_o8 - 0.599960327148438 n_k4_o8
                   + 3.40003967285156 n_k5_o8 - 1.59996032714844 n_k6_o8
                   - 1.59996032714844 n_k7_o8 + 3.40003967285156 n_k8_o8
                   + 3.40003967285156 n_k9_o8 - 0.599960327148438 n_k10_o8
                   - 1.59996032714844 n_k11_o8 - 0.599960327148438 n_k12_o8
                   - 1.59996032714844 n_k13_o8 - 1.59996032714844 n_k14_o8
                   - 0.599960327148438 n_k15_o8 - 0.599960327148438 n_k16_o8
                   - 1.59996032714844 n_k17_o8 - 1.59996032714844 n_k18_o8
                   - 2.59996032714844 n_k19_o8 - 2.59996032714844 n_k20_o8 <= 0
 UTILITY_TF_9#8:   3.40003967285156 n_k1_o9 + 2.40003967285156 n_k2_o9
                   + 3.40003967285156 n_k3_o9 - 0.599960327148438 n_k4_o9
                   + 3.40003967285156 n_k5_o9 - 1.59996032714844 n_k6_o9
                   - 1.59996032714844 n_k7_o9 + 3.40003967285156 n_k8_o9
                   + 3.40003967285156 n_k9_o9 - 0.599960327148438 n_k10_o9
                   - 1.59996032714844 n_k11_o9 - 0.599960327148438 n_k12_o9
                   - 1.59996032714844 n_k13_o9 - 1.59996032714844 n_k14_o9
                   - 0.599960327148438 n_k15_o9 - 0.599960327148438 n_k16_o9
                   - 1.59996032714844 n_k17_o9 - 1.59996032714844 n_k18_o9
                   - 2.59996032714844 n_k19_o9 - 2.59996032714844 n_k20_o9 <= 0
 UTILITY_TF_10#9:  3.40003967285156 n_k1_o10 + 2.40003967285156 n_k2_o10
                   + 3.40003967285156 n_k3_o10 - 0.599960327148438 n_k4_o10
                   + 3.40003967285156 n_k5_o10 - 1.59996032714844 n_k6_o10
                   - 1.59996032714844 n_k7_o10 + 3.40003967285156 n_k8_o10
                   + 3.40003967285156 n_k9_o10 - 0.599960327148438 n_k10_o10
                   - 1.59996032714844 n_k11_o10 - 0.599960327148438 n_k12_o10
                   - 1.59996032714844 n_k13_o10 - 1.59996032714844 n_k14_o10
                   - 0.599960327148438 n_k15_o10 - 0.599960327148438 n_k16_o10
                   - 1.59996032714844 n_k17_o10 - 1.59996032714844 n_k18_o10
                   - 2.59996032714844 n_k19_o10 - 2.59996032714844 n_k20_o10
                   <= 0
 _EQ_K1#10:        n_k1_o1 + n_k1_o2 + n_k1_o3 + n_k1_o4 + n_k1_o5 + n_k1_o6
                   + n_k1_o7 + n_k1_o8 + n_k1_o9 + n_k1_o10  = 1
 _EQ_K2#11:        n_k2_o1 + n_k2_o2 + n_k2_o3 + n_k2_o4 + n_k2_o5 + n_k2_o6
                   + n_k2_o7 + n_k2_o8 + n_k2_o9 + n_k2_o10  = 1
 _EQ_K3#12:        n_k3_o1 + n_k3_o2 + n_k3_o3 + n_k3_o4 + n_k3_o5 + n_k3_o6
                   + n_k3_o7 + n_k3_o8 + n_k3_o9 + n_k3_o10  = 1
 _EQ_K4#13:        n_k4_o1 + n_k4_o2 + n_k4_o3 + n_k4_o4 + n_k4_o5 + n_k4_o6
                   + n_k4_o7 + n_k4_o8 + n_k4_o9 + n_k4_o10  = 1
 _EQ_K5#14:        n_k5_o1 + n_k5_o2 + n_k5_o3 + n_k5_o4 + n_k5_o5 + n_k5_o6
                   + n_k5_o7 + n_k5_o8 + n_k5_o9 + n_k5_o10  = 1
 _EQ_K6#15:        n_k6_o1 + n_k6_o2 + n_k6_o3 + n_k6_o4 + n_k6_o5 + n_k6_o6
                   + n_k6_o7 + n_k6_o8 + n_k6_o9 + n_k6_o10  = 1
 _EQ_K7#16:        n_k7_o1 + n_k7_o2 + n_k7_o3 + n_k7_o4 + n_k7_o5 + n_k7_o6
                   + n_k7_o7 + n_k7_o8 + n_k7_o9 + n_k7_o10  = 1
 _EQ_K8#17:        n_k8_o1 + n_k8_o2 + n_k8_o3 + n_k8_o4 + n_k8_o5 + n_k8_o6
                   + n_k8_o7 + n_k8_o8 + n_k8_o9 + n_k8_o10  = 1
 _EQ_K9#18:        n_k9_o1 + n_k9_o2 + n_k9_o3 + n_k9_o4 + n_k9_o5 + n_k9_o6
                   + n_k9_o7 + n_k9_o8 + n_k9_o9 + n_k9_o10  = 1
 _EQ_K10#19:       n_k10_o1 + n_k10_o2 + n_k10_o3 + n_k10_o4 + n_k10_o5
                   + n_k10_o6 + n_k10_o7 + n_k10_o8 + n_k10_o9 + n_k10_o10  = 1
 _EQ_K11#20:       n_k11_o1 + n_k11_o2 + n_k11_o3 + n_k11_o4 + n_k11_o5
                   + n_k11_o6 + n_k11_o7 + n_k11_o8 + n_k11_o9 + n_k11_o10  = 1
 _EQ_K12#21:       n_k12_o1 + n_k12_o2 + n_k12_o3 + n_k12_o4 + n_k12_o5
                   + n_k12_o6 + n_k12_o7 + n_k12_o8 + n_k12_o9 + n_k12_o10  = 1
 _EQ_K13#22:       n_k13_o1 + n_k13_o2 + n_k13_o3 + n_k13_o4 + n_k13_o5
                   + n_k13_o6 + n_k13_o7 + n_k13_o8 + n_k13_o9 + n_k13_o10  = 1
 _EQ_K14#23:       n_k14_o1 + n_k14_o2 + n_k14_o3 + n_k14_o4 + n_k14_o5
                   + n_k14_o6 + n_k14_o7 + n_k14_o8 + n_k14_o9 + n_k14_o10  = 1
 _EQ_K15#24:       n_k15_o1 + n_k15_o2 + n_k15_o3 + n_k15_o4 + n_k15_o5
                   + n_k15_o6 + n_k15_o7 + n_k15_o8 + n_k15_o9 + n_k15_o10  = 1
 _EQ_K16#25:       n_k16_o1 + n_k16_o2 + n_k16_o3 + n_k16_o4 + n_k16_o5
                   + n_k16_o6 + n_k16_o7 + n_k16_o8 + n_k16_o9 + n_k16_o10  = 1
 _EQ_K17#26:       n_k17_o1 + n_k17_o2 + n_k17_o3 + n_k17_o4 + n_k17_o5
                   + n_k17_o6 + n_k17_o7 + n_k17_o8 + n_k17_o9 + n_k17_o10  = 1
 _EQ_K18#27:       n_k18_o1 + n_k18_o2 + n_k18_o3 + n_k18_o4 + n_k18_o5
                   + n_k18_o6 + n_k18_o7 + n_k18_o8 + n_k18_o9 + n_k18_o10  = 1
 _EQ_K19#28:       n_k19_o1 + n_k19_o2 + n_k19_o3 + n_k19_o4 + n_k19_o5
                   + n_k19_o6 + n_k19_o7 + n_k19_o8 + n_k19_o9 + n_k19_o10  = 1
 _EQ_K20#29:       n_k20_o1 + n_k20_o2 + n_k20_o3 + n_k20_o4 + n_k20_o5
                   + n_k20_o6 + n_k20_o7 + n_k20_o8 + n_k20_o9 + n_k20_o10  = 1
 NUM_TF_7#30:      n_k1_o7 + n_k2_o7 + n_k3_o7 + n_k4_o7 + n_k5_o7 + n_k6_o7
                   + n_k7_o7 + n_k8_o7 + n_k9_o7 + n_k10_o7 + n_k11_o7
                   + n_k12_o7 + n_k13_o7 + n_k14_o7 + n_k15_o7 + n_k16_o7
                   + n_k17_o7 + n_k18_o7 + n_k19_o7 + n_k20_o7  = 6
 NUM_TF_6#31:      n_k1_o6 + n_k2_o6 + n_k3_o6 + n_k4_o6 + n_k5_o6 + n_k6_o6
                   + n_k7_o6 + n_k8_o6 + n_k9_o6 + n_k10_o6 + n_k11_o6
                   + n_k12_o6 + n_k13_o6 + n_k14_o6 + n_k15_o6 + n_k16_o6
                   + n_k17_o6 + n_k18_o6 + n_k19_o6 + n_k20_o6  = 8
 ZERO_K1_O1#32:    n_k1_o1  = 0
 ZERO_K1_O8#33:    n_k1_o8  = 0
 ZERO_K1_O9#34:    n_k1_o9  = 0
 ZERO_K2_O1#35:    n_k2_o1  = 0
 ZERO_K2_O2#36:    n_k2_o2  = 0
 ZERO_K2_O3#37:    n_k2_o3  = 0
 ZERO_K2_O4#38:    n_k2_o4  = 0
 ZERO_K2_O6#39:    n_k2_o6  = 0
 ZERO_K2_O10#40:   n_k2_o10  = 0
 ZERO_K3_O2#41:    n_k3_o2  = 0
 ZERO_K3_O4#42:    n_k3_o4  = 0
 ZERO_K3_O7#43:    n_k3_o7  = 0
 ZERO_K3_O8#44:    n_k3_o8  = 0
 ZERO_K4_O3#45:    n_k4_o3  = 0
 ZERO_K4_O4#46:    n_k4_o4  = 0
 ZERO_K4_O5#47:    n_k4_o5  = 0
 ZERO_K4_O8#48:    n_k4_o8  = 0
 ZERO_K4_O10#49:   n_k4_o10  = 0
 ZERO_K5_O2#50:    n_k5_o2  = 0
 ZERO_K5_O4#51:    n_k5_o4  = 0
 ZERO_K5_O7#52:    n_k5_o7  = 0
 ZERO_K5_O8#53:    n_k5_o8  = 0
 ZERO_K6_O1#54:    n_k6_o1  = 0
 ZERO_K6_O4#55:    n_k6_o4  = 0
 ZERO_K6_O5#56:    n_k6_o5  = 0
 ZERO_K6_O9#57:    n_k6_o9  = 0
 ZERO_K7_O1#58:    n_k7_o1  = 0
 ZERO_K7_O2#59:    n_k7_o2  = 0
 ZERO_K8_O1#60:    n_k8_o1  = 0
 ZERO_K8_O8#61:    n_k8_o8  = 0
 ZERO_K8_O9#62:    n_k8_o9  = 0
 ZERO_K9_O2#63:    n_k9_o2  = 0
 ZERO_K9_O4#64:    n_k9_o4  = 0
 ZERO_K9_O7#65:    n_k9_o7  = 0
 ZERO_K9_O8#66:    n_k9_o8  = 0
 ZERO_K10_O1#67:   n_k10_o1  = 0
 ZERO_K10_O4#68:   n_k10_o4  = 0
 ZERO_K10_O5#69:   n_k10_o5  = 0
 ZERO_K10_O7#70:   n_k10_o7  = 0
 ZERO_K10_O8#71:   n_k10_o8  = 0
 ZERO_K10_O10#72:  n_k10_o10  = 0
 ZERO_K11_O1#73:   n_k11_o1  = 0
 ZERO_K11_O2#74:   n_k11_o2  = 0
 ZERO_K12_O2#75:   n_k12_o2  = 0
 ZERO_K12_O6#76:   n_k12_o6  = 0
 ZERO_K12_O9#77:   n_k12_o9  = 0
 ZERO_K12_O10#78:  n_k12_o10  = 0
 ZERO_K13_O1#79:   n_k13_o1  = 0
 ZERO_K13_O3#80:   n_k13_o3  = 0
 ZERO_K13_O5#81:   n_k13_o5  = 0
 ZERO_K13_O6#82:   n_k13_o6  = 0
 ZERO_K13_O8#83:   n_k13_o8  = 0
 ZERO_K13_O10#84:  n_k13_o10  = 0
 ZERO_K14_O1#85:   n_k14_o1  = 0
 ZERO_K14_O4#86:   n_k14_o4  = 0
 ZERO_K14_O5#87:   n_k14_o5  = 0
 ZERO_K14_O9#88:   n_k14_o9  = 0
 ZERO_K15_O3#89:   n_k15_o3  = 0
 ZERO_K15_O4#90:   n_k15_o4  = 0
 ZERO_K15_O5#91:   n_k15_o5  = 0
 ZERO_K15_O8#92:   n_k15_o8  = 0
 ZERO_K15_O10#93:  n_k15_o10  = 0
 ZERO_K16_O2#94:   n_k16_o2  = 0
 ZERO_K16_O6#95:   n_k16_o6  = 0
 ZERO_K16_O9#96:   n_k16_o9  = 0
 ZERO_K16_O10#97:  n_k16_o10  = 0
 ZERO_K17_O1#98:   n_k17_o1  = 0
 ZERO_K17_O2#99:   n_k17_o2  = 0
 ZERO_K18_O1#100:  n_k18_o1  = 0
 ZERO_K18_O3#101:  n_k18_o3  = 0
 ZERO_K18_O5#102:  n_k18_o5  = 0
 ZERO_K18_O6#103:  n_k18_o6  = 0
 ZERO_K18_O7#104:  n_k18_o7  = 0
 ZERO_K18_O10#105: n_k18_o10  = 0
 ZERO_K19_O2#106:  n_k19_o2  = 0
 ZERO_K19_O3#107:  n_k19_o3  = 0
 ZERO_K19_O6#108:  n_k19_o6  = 0
 ZERO_K19_O8#109:  n_k19_o8  = 0
 ZERO_K19_O10#110: n_k19_o10  = 0
 ZERO_K20_O2#111:  n_k20_o2  = 0
 ZERO_K20_O3#112:  n_k20_o3  = 0
 ZERO_K20_O6#113:  n_k20_o6  = 0
 ZERO_K20_O8#114:  n_k20_o8  = 0
 ZERO_K20_O10#115: n_k20_o10  = 0
Bounds
 0 <= n_k1_o1 <= 1
 0 <= n_k1_o2 <= 1
 0 <= n_k1_o3 <= 1
 0 <= n_k1_o4 <= 1
 0 <= n_k1_o5 <= 1
 0 <= n_k1_o6 <= 1
 0 <= n_k1_o7 <= 1
 0 <= n_k1_o8 <= 1
 0 <= n_k1_o9 <= 1
 0 <= n_k1_o10 <= 1
 0 <= n_k2_o1 <= 1
 0 <= n_k2_o2 <= 1
 0 <= n_k2_o3 <= 1
 0 <= n_k2_o4 <= 1
 0 <= n_k2_o5 <= 1
 0 <= n_k2_o6 <= 1
 0 <= n_k2_o7 <= 1
 0 <= n_k2_o8 <= 1
 0 <= n_k2_o9 <= 1
 0 <= n_k2_o10 <= 1
 0 <= n_k3_o1 <= 1
 0 <= n_k3_o2 <= 1
 0 <= n_k3_o3 <= 1
 0 <= n_k3_o4 <= 1
 0 <= n_k3_o5 <= 1
 0 <= n_k3_o6 <= 1
 0 <= n_k3_o7 <= 1
 0 <= n_k3_o8 <= 1
 0 <= n_k3_o9 <= 1
 0 <= n_k3_o10 <= 1
 0 <= n_k4_o1 <= 1
 0 <= n_k4_o2 <= 1
 0 <= n_k4_o3 <= 1
 0 <= n_k4_o4 <= 1
 0 <= n_k4_o5 <= 1
 0 <= n_k4_o6 <= 1
 0 <= n_k4_o7 <= 1
 0 <= n_k4_o8 <= 1
 0 <= n_k4_o9 <= 1
 0 <= n_k4_o10 <= 1
 0 <= n_k5_o1 <= 1
 0 <= n_k5_o2 <= 1
 0 <= n_k5_o3 <= 1
 0 <= n_k5_o4 <= 1
 0 <= n_k5_o5 <= 1
 0 <= n_k5_o6 <= 1
 0 <= n_k5_o7 <= 1
 0 <= n_k5_o8 <= 1
 0 <= n_k5_o9 <= 1
 0 <= n_k5_o10 <= 1
 0 <= n_k6_o1 <= 1
 0 <= n_k6_o2 <= 1
 0 <= n_k6_o3 <= 1
 0 <= n_k6_o4 <= 1
 0 <= n_k6_o5 <= 1
 0 <= n_k6_o6 <= 1
 0 <= n_k6_o7 <= 1
 0 <= n_k6_o8 <= 1
 0 <= n_k6_o9 <= 1
 0 <= n_k6_o10 <= 1
 0 <= n_k7_o1 <= 1
 0 <= n_k7_o2 <= 1
 0 <= n_k7_o3 <= 1
 0 <= n_k7_o4 <= 1
 0 <= n_k7_o5 <= 1
 0 <= n_k7_o6 <= 1
 0 <= n_k7_o7 <= 1
 0 <= n_k7_o8 <= 1
 0 <= n_k7_o9 <= 1
 0 <= n_k7_o10 <= 1
 0 <= n_k8_o1 <= 1
 0 <= n_k8_o2 <= 1
 0 <= n_k8_o3 <= 1
 0 <= n_k8_o4 <= 1
 0 <= n_k8_o5 <= 1
 0 <= n_k8_o6 <= 1
 0 <= n_k8_o7 <= 1
 0 <= n_k8_o8 <= 1
 0 <= n_k8_o9 <= 1
 0 <= n_k8_o10 <= 1
 0 <= n_k9_o1 <= 1
 0 <= n_k9_o2 <= 1
 0 <= n_k9_o3 <= 1
 0 <= n_k9_o4 <= 1
 0 <= n_k9_o5 <= 1
 0 <= n_k9_o6 <= 1
 0 <= n_k9_o7 <= 1
 0 <= n_k9_o8 <= 1
 0 <= n_k9_o9 <= 1
 0 <= n_k9_o10 <= 1
 0 <= n_k10_o1 <= 1
 0 <= n_k10_o2 <= 1
 0 <= n_k10_o3 <= 1
 0 <= n_k10_o4 <= 1
 0 <= n_k10_o5 <= 1
 0 <= n_k10_o6 <= 1
 0 <= n_k10_o7 <= 1
 0 <= n_k10_o8 <= 1
 0 <= n_k10_o9 <= 1
 0 <= n_k10_o10 <= 1
 0 <= n_k11_o1 <= 1
 0 <= n_k11_o2 <= 1
 0 <= n_k11_o3 <= 1
 0 <= n_k11_o4 <= 1
 0 <= n_k11_o5 <= 1
 0 <= n_k11_o6 <= 1
 0 <= n_k11_o7 <= 1
 0 <= n_k11_o8 <= 1
 0 <= n_k11_o9 <= 1
 0 <= n_k11_o10 <= 1
 0 <= n_k12_o1 <= 1
 0 <= n_k12_o2 <= 1
 0 <= n_k12_o3 <= 1
 0 <= n_k12_o4 <= 1
 0 <= n_k12_o5 <= 1
 0 <= n_k12_o6 <= 1
 0 <= n_k12_o7 <= 1
 0 <= n_k12_o8 <= 1
 0 <= n_k12_o9 <= 1
 0 <= n_k12_o10 <= 1
 0 <= n_k13_o1 <= 1
 0 <= n_k13_o2 <= 1
 0 <= n_k13_o3 <= 1
 0 <= n_k13_o4 <= 1
 0 <= n_k13_o5 <= 1
 0 <= n_k13_o6 <= 1
 0 <= n_k13_o7 <= 1
 0 <= n_k13_o8 <= 1
 0 <= n_k13_o9 <= 1
 0 <= n_k13_o10 <= 1
 0 <= n_k14_o1 <= 1
 0 <= n_k14_o2 <= 1
 0 <= n_k14_o3 <= 1
 0 <= n_k14_o4 <= 1
 0 <= n_k14_o5 <= 1
 0 <= n_k14_o6 <= 1
 0 <= n_k14_o7 <= 1
 0 <= n_k14_o8 <= 1
 0 <= n_k14_o9 <= 1
 0 <= n_k14_o10 <= 1
 0 <= n_k15_o1 <= 1
 0 <= n_k15_o2 <= 1
 0 <= n_k15_o3 <= 1
 0 <= n_k15_o4 <= 1
 0 <= n_k15_o5 <= 1
 0 <= n_k15_o6 <= 1
 0 <= n_k15_o7 <= 1
 0 <= n_k15_o8 <= 1
 0 <= n_k15_o9 <= 1
 0 <= n_k15_o10 <= 1
 0 <= n_k16_o1 <= 1
 0 <= n_k16_o2 <= 1
 0 <= n_k16_o3 <= 1
 0 <= n_k16_o4 <= 1
 0 <= n_k16_o5 <= 1
 0 <= n_k16_o6 <= 1
 0 <= n_k16_o7 <= 1
 0 <= n_k16_o8 <= 1
 0 <= n_k16_o9 <= 1
 0 <= n_k16_o10 <= 1
 0 <= n_k17_o1 <= 1
 0 <= n_k17_o2 <= 1
 0 <= n_k17_o3 <= 1
 0 <= n_k17_o4 <= 1
 0 <= n_k17_o5 <= 1
 0 <= n_k17_o6 <= 1
 0 <= n_k17_o7 <= 1
 0 <= n_k17_o8 <= 1
 0 <= n_k17_o9 <= 1
 0 <= n_k17_o10 <= 1
 0 <= n_k18_o1 <= 1
 0 <= n_k18_o2 <= 1
 0 <= n_k18_o3 <= 1
 0 <= n_k18_o4 <= 1
 0 <= n_k18_o5 <= 1
 0 <= n_k18_o6 <= 1
 0 <= n_k18_o7 <= 1
 0 <= n_k18_o8 <= 1
 0 <= n_k18_o9 <= 1
 0 <= n_k18_o10 <= 1
 0 <= n_k19_o1 <= 1
 0 <= n_k19_o2 <= 1
 0 <= n_k19_o3 <= 1
 0 <= n_k19_o4 <= 1
 0 <= n_k19_o5 <= 1
 0 <= n_k19_o6 <= 1
 0 <= n_k19_o7 <= 1
 0 <= n_k19_o8 <= 1
 0 <= n_k19_o9 <= 1
 0 <= n_k19_o10 <= 1
 0 <= n_k20_o1 <= 1
 0 <= n_k20_o2 <= 1
 0 <= n_k20_o3 <= 1
 0 <= n_k20_o4 <= 1
 0 <= n_k20_o5 <= 1
 0 <= n_k20_o6 <= 1
 0 <= n_k20_o7 <= 1
 0 <= n_k20_o8 <= 1
 0 <= n_k20_o9 <= 1
 0 <= n_k20_o10 <= 1
      x201 = 1
End
